c 0 unknown clauses, 73 necessary clauses.
p cnf 72 73
-1 -2 15 0
1 2 16 0
-16 -17 0
-15 -17 0
-3 -4 18 0
3 4 19 0
-19 -20 0
-18 -20 0
20 -21 0
17 -21 0
-1 -5 22 0
1 5 23 0
-23 -24 0
-22 -24 0
24 -25 0
21 -25 0
-7 -8 26 0
7 8 27 0
-27 -28 0
-26 -28 0
-9 -10 29 0
9 10 30 0
-30 -31 0
-29 -31 0
31 -32 0
28 -32 0
32 -33 0
6 -33 0
33 -34 0
25 -34 0
-5 -35 0
-4 -35 0
35 -36 0
-7 -36 0
36 -37 0
-9 -37 0
2 -3 38 0
-1 -38 39 0
-8 -10 40 0
-6 -40 41 0
-39 -41 42 0
-42 -43 0
37 -43 0
5 -44 0
4 -44 0
44 -45 0
7 -45 0
45 -46 0
9 -46 0
-2 3 47 0
1 -47 48 0
8 10 49 0
-6 -49 50 0
-48 -50 51 0
-51 -52 0
46 -52 0
52 -53 0
43 53 54 0
-54 -55 0
34 -55 0
-12 -59 0
59 -63 0
11 -64 0
63 -65 0
64 65 66 0
-66 -67 0
67 -68 0
68 -69 0
12 -69 0
69 -70 0
-11 -70 0
55 70 71 0
-71 0
